# Objective value = 3.0746399370013114e+02
x[0] 1
x[1] 1
x[2] 0
x[3] 1
x[4] 0
x[5] 0
x[6] 1
x[7] 0
x[8] 1
x[9] 0
x[10] 0
x[11] 0
x[12] 1
x[13] 1
x[14] 1
x[15] 0
x[16] 1
x[17] 0
x[18] 1
x[19] 0
x[20] 1
x[21] 0
x[22] 0
x[23] 1
x[24] 1
x[25] 1
x[26] 1
x[27] 0
x[28] 0
x[29] 0
x[30] 0
x[31] 1
x[32] 1
x[33] 0
x[34] 0
x[35] 1
x[36] 0
x[37] 0
x[38] 0
x[39] 1
x[40] 1
x[41] 0
x[42] 1
x[43] 1
x[44] 1
x[45] 0
x[46] 0
x[47] 0
x[48] 0
x[49] 0
x[50] 0
x[51] 1
x[52] 0
x[53] 1
x[54] 0
x[55] 1
x[56] 0
x[57] 0
x[58] 0
x[59] 0
x[60] 1
x[61] 0
x[62] 0
x[63] 0
x[64] 1
x[65] 1
x[66] 1
x[67] 0
x[68] 0
x[69] 0
x[70] 1
x[71] 1
x[72] 1
x[73] 0
x[74] 1
x[75] 1
x[76] 1
x[77] 0
x[78] 1
x[79] 1
x[80] 1
x[81] 1
x[82] 1
x[83] 1
x[84] 0
x[85] 1
x[86] 0
x[87] 0
x[88] 1
x[89] 1
x[90] 1
x[91] 1
x[92] 0
x[93] 1
x[94] 0
x[95] 1
x[96] 0
x[97] 1
x[98] 0
x[99] 1
x[100] 0
x[101] 1
x[102] 1
x[103] 0
x[104] 0
x[105] 1
x[106] 1
x[107] 1
x[108] 0
x[109] 1
x[110] 1
x[111] 0
x[112] 0
x[113] 0
x[114] 1
x[115] 1
x[116] 0
x[117] 0
x[118] 1
x[119] 1
x[120] 1
x[121] 1
x[122] 1
x[123] 1
x[124] 0
x[125] 1
x[126] 0
x[127] 1
x[128] 1
x[129] 0
x[130] 0
x[131] 0
x[132] 0
x[133] 1
x[134] 1
x[135] 1
x[136] 1
x[137] 0
x[138] 1
x[139] 0
x[140] 1
x[141] 0
x[142] 1
x[143] 0
x[144] 1
x[145] 1
x[146] 1
x[147] 0
x[148] 1
x[149] 0
x[150] 1
x[151] 0
x[152] 0
x[153] 0
x[154] 0
x[155] 1
x[156] 1
x[157] 0
x[158] 1
x[159] 0
x[160] 1
x[161] 0
x[162] 0
x[163] 0
x[164] 1
x[165] 1
x[166] 1
x[167] 0
x[168] 0
x[169] 1
x[170] 0
x[171] 1
x[172] 0
x[173] 1
x[174] 1
x[175] 0
x[176] 0
x[177] 0
x[178] 1
x[179] 0
x[180] 0
x[181] 0
x[182] 1
x[183] 0
x[184] 0
x[185] 1
x[186] 1
x[187] 1
x[188] 1
x[189] 0
x[190] 1
x[191] 0
x[192] 1
x[193] 1
x[194] 0
x[195] 0
x[196] 0
x[197] 1
x[198] 0
x[199] 0
x[200] 1
x[201] 0
x[202] 0
x[203] 1
x[204] 1
x[205] 1
x[206] 0
x[207] 1
x[208] 1
x[209] 1
x[210] 1
x[211] 1
x[212] 1
x[213] 0
x[214] 0
x[215] 1
x[216] 0
x[217] 1
x[218] 0
x[219] 1
x[220] 0
x[221] 0
x[222] 0
x[223] 1
x[224] 1
x[225] 0
x[226] 1
x[227] 1
x[228] 0
x[229] 1
x[230] 1
x[231] 0
x[232] 0
x[233] 0
x[234] 0
x[235] 0
x[236] 0
x[237] 1
x[238] 0
x[239] 1
x[240] 0
x[241] 0
x[242] 0
x[243] 0
x[244] 0
x[245] 0
x[246] 1
x[247] 1
x[248] 1.0000003013666583e+00
x[249] 0
x[250] 0
x[251] 0
x[252] 0
x[253] 0
x[254] 0
x[255] 1
x[256] 1
x[257] 1
x[258] 1
x[259] 0
x[260] 0
x[261] 1
x[262] 0
x[263] 0
x[264] 0
x[265] 1
x[266] 0
x[267] 0
x[268] 0
x[269] 0
x[270] 0
x[271] 1
x[272] 1
x[273] 0
x[274] 0
x[275] 0
x[276] 0
x[277] 0
x[278] 1
x[279] 0
x[280] 0
x[281] 0
x[282] 1
x[283] 1
x[284] 1
x[285] 1
x[286] 1
x[287] 0
x[288] 1
x[289] 1
x[290] 0
x[291] 0
x[292] 1
x[293] 0
x[294] 1
x[295] 1
x[296] 1
x[297] 0
x[298] 0
x[299] 1
x[300] 1
x[301] 1
x[302] 1
x[303] 1
x[304] 1
x[305] 1
x[306] 0
x[307] 1
x[308] 0
x[309] 1
x[310] 0
x[311] 1
x[312] 1
x[313] 0
x[314] 0
x[315] 0
x[316] 0
x[317] 0
x[318] 1
x[319] 1
x[320] 1
x[321] 0
x[322] 0
x[323] 0
x[324] 0
x[325] 0
x[326] 1
x[327] 0
x[328] 0
x[329] 1
x[330] 0
x[331] 0
x[332] 0
x[333] 1
x[334] 0
x[335] 0
x[336] 1
x[337] 0
x[338] 1
x[339] 1
x[340] 0
x[341] 0
x[342] 0
x[343] 1
x[344] 0
x[345] 1
x[346] 1
x[347] 1
x[348] 0
x[349] 1
x[350] 1
x[351] 0
x[352] 0
x[353] 0
x[354] 1
x[355] 1
x[356] 1
x[357] 0
x[358] 1
x[359] 1
x[360] 0
x[361] 1
x[362] 0
x[363] 1
x[364] 1
x[365] 1
x[366] 0
x[367] 1
x[368] 0
x[369] 0
x[370] 0
x[371] 0
x[372] 1
x[373] 1
x[374] 1
x[375] 0
x[376] 0
x[377] 1
x[378] 1
x[379] 0
x[380] 0
x[381] 0
x[382] 0
x[383] 1
x[384] 1
x[385] 1
x[386] 0
x[387] 1
x[388] 1
x[389] 0
x[390] 0
x[391] 1
x[392] 0
x[393] 1
x[394] 0
x[395] 1
x[396] 1
x[397] 0
x[398] 0
x[399] 1
x[400] 1
x[401] 0
x[402] 1
x[403] 1
x[404] 1
x[405] 1
x[406] 1
x[407] 1
x[408] 1
x[409] 1
x[410] 1
x[411] 1
x[412] 1
x[413] 1
x[414] 0
x[415] 1
x[416] 0
x[417] 0
x[418] 0
x[419] 1
x[420] 0
x[421] 0
x[422] 1
x[423] 1
x[424] 0
x[425] 0
x[426] 1
x[427] 1
x[428] 1
x[429] 1
x[430] 0
x[431] 0
x[432] 0
x[433] 1
x[434] 0
x[435] 1
x[436] 0
x[437] 0
x[438] 0
x[439] 1
x[440] 1
x[441] 1
x[442] 1
x[443] 0
x[444] 0
x[445] 1
x[446] 0
x[447] 0
x[448] 0
x[449] 0
x[450] 0
x[451] 0
x[452] 0
x[453] 1
x[454] 0
x[455] 1
x[456] 0
x[457] 1
x[458] 0
x[459] 0
x[460] 1
x[461] 0
x[462] 1
x[463] 0
x[464] 0
x[465] 0
x[466] 0
x[467] 1
x[468] 1
x[469] 1
x[470] 0
x[471] 0
x[472] 1
x[473] 0
x[474] -6.0350112524169913e-07
x[475] 1.0000003021734682e+00
x[476] 0
x[477] 0
x[478] 0
x[479] 0
x[480] 1
x[481] 0
x[482] 0
x[483] 1
x[484] 1
x[485] 0
x[486] 0
x[487] 1
x[488] 0
x[489] 0
x[490] 1
x[491] 1
x[492] 1
x[493] 0
x[494] 1
x[495] 1
x[496] 1
x[497] 1
x[498] 0
x[499] 0
x[500] 0
x[501] 1
x[502] 0
x[503] 0
x[504] 0
x[505] 0
x[506] 1
x[507] 0
x[508] 1
x[509] 0
x[510] 1
x[511] 1
x[512] 0
x[513] 0
x[514] 0
x[515] 1
x[516] 0
x[517] 0
x[518] 1
x[519] 0
x[520] 0
x[521] 0
x[522] 0
x[523] 0
x[524] 0
x[525] 1
x[526] 1
x[527] 0
x[528] 1
x[529] 1
x[530] 0
x[531] 1
x[532] 0
x[533] 0
x[534] 1
x[535] 0
x[536] 0
x[537] 1
x[538] 1
x[539] 0
x[540] 1
x[541] 1
x[542] 0
x[543] 1
x[544] 1
x[545] 1
x[546] 1
x[547] 1
x[548] 1
x[549] 1
x[550] 0
x[551] 1
x[552] 0
x[553] 0
x[554] 1
x[555] 0
x[556] 1
x[557] 0
x[558] 1
x[559] 0
x[560] 0
x[561] 1
x[562] 0
x[563] 1
x[564] 0
x[565] 0
x[566] 0
x[567] 1
x[568] 0
x[569] 0
x[570] 0
x[571] 0
x[572] 1
x[573] 0
x[574] 0
x[575] 0
x[576] 1
x[577] 0
x[578] 1
x[579] 1
x[580] 1
x[581] 0
x[582] 1
x[583] 1
x[584] 0
x[585] 1
x[586] 0
x[587] 1
x[588] 1
x[589] 0
x[590] 1
x[591] 0
x[592] 1
x[593] 0
x[594] 1
x[595] 1
x[596] 0
x[597] 0
x[598] 0
x[599] 1
x[600] 0
x[601] 1
x[602] 0
x[603] 1
x[604] 0
x[605] 0
x[606] 1
x[607] 0
x[608] 1
x[609] 0
x[610] 0
x[611] 1
x[612] 1
x[613] 0
x[614] 0
x[615] 0
x[616] 0
x[617] 0
x[618] 1
x[619] 1
x[620] 1
x[621] 0
x[622] 1
x[623] 0
x[624] 1
x[625] 0
x[626] 1
x[627] 1
x[628] 0
x[629] 0
x[630] 0
x[631] 1
x[632] 0
x[633] 0
x[634] 1
x[635] 1
x[636] 1
x[637] 0
x[638] 0
x[639] 1
x[640] 1
x[641] 0
x[642] 0
x[643] 0
x[644] 0
x[645] 1
x[646] 1
x[647] 0
x[648] 1
x[649] 0
x[650] 1
x[651] 0
x[652] 0
x[653] 0
x[654] 0
x[655] 0
x[656] 1
x[657] 0
x[658] 0
x[659] 0
x[660] 0
x[661] 0
x[662] 1
x[663] 0
x[664] 1
x[665] 1
x[666] 1
x[667] 1
x[668] 0
x[669] 1
x[670] 1
x[671] 1
x[672] 1
x[673] 0
x[674] 0
x[675] 1
x[676] 0
x[677] 1
x[678] 0
x[679] 1
x[680] 0
x[681] 0
x[682] 1
x[683] 0
x[684] 0
x[685] 1
x[686] 1
x[687] 1
x[688] 1
x[689] 1
x[690] 0
x[691] 1
x[692] 1
x[693] 0
x[694] 0
x[695] 0
x[696] 1
x[697] 1
x[698] 1
x[699] 1
x[700] 1
x[701] 1
x[702] 0
x[703] 0
x[704] 1
x[705] 0
x[706] 0
x[707] 0
x[708] 0
x[709] 0
x[710] 0
x[711] 1
x[712] 0
x[713] 0
x[714] 0
x[715] 1
x[716] 0
x[717] 0
x[718] 1
x[719] 0
x[720] 0
x[721] 1
x[722] 0
x[723] 1
x[724] 1
x[725] 0
x[726] 0
x[727] 1
x[728] 0
x[729] 0
x[730] 1
x[731] 0
x[732] 1
x[733] 0
x[734] 1
x[735] 1
x[736] 0
x[737] 0
x[738] 0
x[739] 0
x[740] 0
x[741] 1
x[742] 1
x[743] 1
x[744] 1
x[745] 1
x[746] 1
x[747] 1
x[748] 0
x[749] 0
x[750] 0
x[751] 0
x[752] 1
x[753] 0
x[754] 1
x[755] 0
x[756] 1
x[757] 1
x[758] 0
x[759] 0
x[760] 0
x[761] 1
x[762] 1
x[763] 1.0000006054818065e+00
x[764] 1
x[765] 1
x[766] 1
x[767] 0
x[768] 1
x[769] 0
x[770] 0
x[771] 0
x[772] 1
x[773] 1
x[774] 0
x[775] 1
x[776] 0
x[777] 1
x[778] 1
x[779] 1
x[780] 1
x[781] 1
x[782] 1
x[783] 0
x[784] -3.0425056262084954e-07
x[785] 0
x[786] 0
x[787] 0
x[788] 0
x[789] 0
x[790] 1
x[791] 1
x[792] 1
x[793] 0
x[794] 0
x[795] 0
x[796] 1
x[797] 0
x[798] 1
x[799] 0
x[800] 1
x[801] 0
x[802] 0
x[803] 0
x[804] 1
x[805] 0
x[806] 0
x[807] 0
x[808] 1
x[809] 1
x[810] 0
x[811] 1
x[812] 0
x[813] 0
x[814] 1
x[815] 0
x[816] 0
x[817] 0
x[818] 0
x[819] 1
x[820] 0
x[821] 0
x[822] 0
x[823] 1
x[824] 0
x[825] 0
x[826] 0
x[827] 0
x[828] 0
x[829] 0
x[830] 0
x[831] 0
x[832] 0
x[833] 1
x[834] 0
x[835] 0
x[836] 0
x[837] 1
x[838] 0
x[839] 1
x[840] 1
x[841] 1
x[842] 1
x[843] 0
x[844] 0
x[845] 1
x[846] 0
x[847] 1
x[848] 1
x[849] 1
x[850] 1
x[851] 1
x[852] 1
x[853] 0
x[854] 1
x[855] 1
x[856] 1
x[857] 0
x[858] 1
x[859] 0
x[860] 0
x[861] 1
x[862] 0
x[863] 0
x[864] 1
x[865] 1
x[866] 0
x[867] 1
x[868] 1
x[869] 0
x[870] 1
x[871] 0
x[872] 0
x[873] -3.0091722909539653e-07
x[874] 1
x[875] 1
x[876] 0
x[877] 0
x[878] 0
x[879] 0
x[880] 1
x[881] 1
x[882] 1
x[883] 1
x[884] 0
x[885] 0
x[886] 1
x[887] 1
x[888] 1
x[889] 1
x[890] 1
x[891] 0
x[892] 1
x[893] 1
x[894] 1
x[895] 0
x[896] 1
x[897] 1
x[898] 0
x[899] 1
x[900] 0
x[901] 0
x[902] 1
x[903] 1
x[904] 0
x[905] 1
x[906] 0
x[907] 0
x[908] 0
x[909] 0
x[910] 1
x[911] 1
x[912] 1
x[913] 1
x[914] 1
x[915] 1
x[916] 0
x[917] 0
x[918] 0
x[919] 0
x[920] 1
x[921] 0
x[922] 1
x[923] 0
x[924] 1
x[925] 1
x[926] 0
x[927] 0
x[928] 0
x[929] 1
x[930] 1
x[931] 1
x[932] 1
x[933] 0
x[934] 1
x[935] 1
x[936] 0
x[937] 1
x[938] 1
x[939] 0
x[940] 0
x[941] 0
x[942] 1
x[943] 1
x[944] 1
x[945] 0
x[946] 1
x[947] 0
x[948] 0
x[949] 0
x[950] 0
x[951] 1
x[952] 1
x[953] 1
x[954] 1
x[955] 0
x[956] 1
x[957] 0
x[958] 0
x[959] 0
x[960] 0
x[961] 0
x[962] 0
x[963] 1
x[964] 0
x[965] 0
x[966] 1
x[967] 0
x[968] 1
x[969] 1
x[970] 1
x[971] 1
x[972] 0
x[973] 0
x[974] 0
x[975] 0
x[976] 0
x[977] 1
x[978] 0
x[979] 0
x[980] 1
x[981] 1
x[982] 1
x[983] 1
x[984] 0
x[985] 0
x[986] 0
x[987] 0
x[988] 0
x[989] 1
x[990] 1
x[991] 1
x[992] 1
x[993] 0
x[994] 1
x[995] 0
x[996] 0
x[997] 0
x[998] 1
x[999] 1
